\ Model vpr
\ LP format - for model browsing. Use MPS format to capture full model detail.
Minimize
  0,0,0 + 0,0,1 + 0,0,2 + 0,0,3 + 0,0,4 + 0,1,0 + 0,1,1 + 0,1,2 + 0,1,3
   + 0,1,4 + 0,2,0 + 0,2,1 + 0,2,2 + 0,2,3 + 0,2,4 + 0,3,0 + 0,3,1 + 0,3,2
   + 0,3,3 + 0,3,4 + 0,4,0 + 0,4,1 + 0,4,2 + 0,4,3 + 0,4,4 + 1,0,0 + 1,0,1
   + 1,0,2 + 1,0,3 + 1,0,4 + 1,1,0 + 1,1,1 + 1,1,2 + 1,1,3 + 1,1,4 + 1,2,0
   + 1,2,1 + 1,2,2 + 1,2,3 + 1,2,4 + 1,3,0 + 1,3,1 + 1,3,2 + 1,3,3 + 1,3,4
   + 1,4,0 + 1,4,1 + 1,4,2 + 1,4,3 + 1,4,4 + 2,0,0 + 2,0,1 + 2,0,2 + 2,0,3
   + 2,0,4 + 2,1,0 + 2,1,1 + 2,1,2 + 2,1,3 + 2,1,4 + 2,2,0 + 2,2,1 + 2,2,2
   + 2,2,3 + 2,2,4 + 2,3,0 + 2,3,1 + 2,3,2 + 2,3,3 + 2,3,4 + 2,4,0 + 2,4,1
   + 2,4,2 + 2,4,3 + 2,4,4 + 3,0,0 + 3,0,1 + 3,0,2 + 3,0,3 + 3,0,4 + 3,1,0
   + 3,1,1 + 3,1,2 + 3,1,3 + 3,1,4 + 3,2,0 + 3,2,1 + 3,2,2 + 3,2,3 + 3,2,4
   + 3,3,0 + 3,3,1 + 3,3,2 + 3,3,3 + 3,3,4 + 3,4,0 + 3,4,1 + 3,4,2 + 3,4,3
   + 3,4,4
Subject To
 sl: 0,0,0 + 0,0,1 + 0,0,2 + 0,0,3 + 0,0,4 + 1,0,0 + 1,0,1 + 1,0,2 + 1,0,3
   + 1,0,4 + 2,0,0 + 2,0,1 + 2,0,2 + 2,0,3 + 2,0,4 + 3,0,0 + 3,0,1 + 3,0,2
   + 3,0,3 + 3,0,4 = 4
 sc: 0,0,0 + 0,1,0 + 0,2,0 + 0,3,0 + 0,4,0 + 1,0,0 + 1,1,0 + 1,2,0 + 1,3,0
   + 1,4,0 + 2,0,0 + 2,1,0 + 2,2,0 + 2,3,0 + 2,4,0 + 3,0,0 + 3,1,0 + 3,2,0
   + 3,3,0 + 3,4,0 = 4
 f00: - 0,0,1 - 0,0,2 - 0,0,3 - 0,0,4 + 0,1,0 + 0,2,0 + 0,3,0 + 0,4,0 = 0
 fi00: 0,0,0 + 0,1,0 + 0,2,0 + 0,3,0 + 0,4,0 <= 1
 fo00: 0,0,0 + 0,0,1 + 0,0,2 + 0,0,3 + 0,0,4 <= 1
 f01: 0,0,1 - 0,1,0 - 0,1,2 - 0,1,3 - 0,1,4 + 0,2,1 + 0,3,1 + 0,4,1 = 0
 fi01: 0,0,1 + 0,1,1 + 0,2,1 + 0,3,1 + 0,4,1 <= 1
 fo01: 0,1,0 + 0,1,1 + 0,1,2 + 0,1,3 + 0,1,4 <= 1
 l01: 0,1,1 = 0
 f02: 0,0,2 + 0,1,2 - 0,2,0 - 0,2,1 - 0,2,3 - 0,2,4 + 0,3,2 + 0,4,2 = 0
 fi02: 0,0,2 + 0,1,2 + 0,2,2 + 0,3,2 + 0,4,2 <= 1
 fo02: 0,2,0 + 0,2,1 + 0,2,2 + 0,2,3 + 0,2,4 <= 1
 l02: 0,2,2 = 0
 f03: 0,0,3 + 0,1,3 + 0,2,3 - 0,3,0 - 0,3,1 - 0,3,2 - 0,3,4 + 0,4,3 = 0
 fi03: 0,0,3 + 0,1,3 + 0,2,3 + 0,3,3 + 0,4,3 <= 1
 fo03: 0,3,0 + 0,3,1 + 0,3,2 + 0,3,3 + 0,3,4 <= 1
 l03: 0,3,3 = 0
 f04: 0,0,4 + 0,1,4 + 0,2,4 + 0,3,4 - 0,4,0 - 0,4,1 - 0,4,2 - 0,4,3 = 0
 fi04: 0,0,4 + 0,1,4 + 0,2,4 + 0,3,4 + 0,4,4 <= 1
 fo04: 0,4,0 + 0,4,1 + 0,4,2 + 0,4,3 + 0,4,4 <= 1
 l04: 0,4,4 = 0
 f10: - 1,0,1 - 1,0,2 - 1,0,3 - 1,0,4 + 1,1,0 + 1,2,0 + 1,3,0 + 1,4,0 = 0
 fi10: 1,0,0 + 1,1,0 + 1,2,0 + 1,3,0 + 1,4,0 <= 1
 fo10: 1,0,0 + 1,0,1 + 1,0,2 + 1,0,3 + 1,0,4 <= 1
 f11: 1,0,1 - 1,1,0 - 1,1,2 - 1,1,3 - 1,1,4 + 1,2,1 + 1,3,1 + 1,4,1 = 0
 fi11: 1,0,1 + 1,1,1 + 1,2,1 + 1,3,1 + 1,4,1 <= 1
 fo11: 1,1,0 + 1,1,1 + 1,1,2 + 1,1,3 + 1,1,4 <= 1
 l11: 1,1,1 = 0
 f12: 1,0,2 + 1,1,2 - 1,2,0 - 1,2,1 - 1,2,3 - 1,2,4 + 1,3,2 + 1,4,2 = 0
 fi12: 1,0,2 + 1,1,2 + 1,2,2 + 1,3,2 + 1,4,2 <= 1
 fo12: 1,2,0 + 1,2,1 + 1,2,2 + 1,2,3 + 1,2,4 <= 1
 l12: 1,2,2 = 0
 f13: 1,0,3 + 1,1,3 + 1,2,3 - 1,3,0 - 1,3,1 - 1,3,2 - 1,3,4 + 1,4,3 = 0
 fi13: 1,0,3 + 1,1,3 + 1,2,3 + 1,3,3 + 1,4,3 <= 1
 fo13: 1,3,0 + 1,3,1 + 1,3,2 + 1,3,3 + 1,3,4 <= 1
 l13: 1,3,3 = 0
 f14: 1,0,4 + 1,1,4 + 1,2,4 + 1,3,4 - 1,4,0 - 1,4,1 - 1,4,2 - 1,4,3 = 0
 fi14: 1,0,4 + 1,1,4 + 1,2,4 + 1,3,4 + 1,4,4 <= 1
 fo14: 1,4,0 + 1,4,1 + 1,4,2 + 1,4,3 + 1,4,4 <= 1
 l14: 1,4,4 = 0
 f20: - 2,0,1 - 2,0,2 - 2,0,3 - 2,0,4 + 2,1,0 + 2,2,0 + 2,3,0 + 2,4,0 = 0
 fi20: 2,0,0 + 2,1,0 + 2,2,0 + 2,3,0 + 2,4,0 <= 1
 fo20: 2,0,0 + 2,0,1 + 2,0,2 + 2,0,3 + 2,0,4 <= 1
 f21: 2,0,1 - 2,1,0 - 2,1,2 - 2,1,3 - 2,1,4 + 2,2,1 + 2,3,1 + 2,4,1 = 0
 fi21: 2,0,1 + 2,1,1 + 2,2,1 + 2,3,1 + 2,4,1 <= 1
 fo21: 2,1,0 + 2,1,1 + 2,1,2 + 2,1,3 + 2,1,4 <= 1
 l21: 2,1,1 = 0
 f22: 2,0,2 + 2,1,2 - 2,2,0 - 2,2,1 - 2,2,3 - 2,2,4 + 2,3,2 + 2,4,2 = 0
 fi22: 2,0,2 + 2,1,2 + 2,2,2 + 2,3,2 + 2,4,2 <= 1
 fo22: 2,2,0 + 2,2,1 + 2,2,2 + 2,2,3 + 2,2,4 <= 1
 l22: 2,2,2 = 0
 f23: 2,0,3 + 2,1,3 + 2,2,3 - 2,3,0 - 2,3,1 - 2,3,2 - 2,3,4 + 2,4,3 = 0
 fi23: 2,0,3 + 2,1,3 + 2,2,3 + 2,3,3 + 2,4,3 <= 1
 fo23: 2,3,0 + 2,3,1 + 2,3,2 + 2,3,3 + 2,3,4 <= 1
 l23: 2,3,3 = 0
 f24: 2,0,4 + 2,1,4 + 2,2,4 + 2,3,4 - 2,4,0 - 2,4,1 - 2,4,2 - 2,4,3 = 0
 fi24: 2,0,4 + 2,1,4 + 2,2,4 + 2,3,4 + 2,4,4 <= 1
 fo24: 2,4,0 + 2,4,1 + 2,4,2 + 2,4,3 + 2,4,4 <= 1
 l24: 2,4,4 = 0
 f30: - 3,0,1 - 3,0,2 - 3,0,3 - 3,0,4 + 3,1,0 + 3,2,0 + 3,3,0 + 3,4,0 = 0
 fi30: 3,0,0 + 3,1,0 + 3,2,0 + 3,3,0 + 3,4,0 <= 1
 fo30: 3,0,0 + 3,0,1 + 3,0,2 + 3,0,3 + 3,0,4 <= 1
 f31: 3,0,1 - 3,1,0 - 3,1,2 - 3,1,3 - 3,1,4 + 3,2,1 + 3,3,1 + 3,4,1 = 0
 fi31: 3,0,1 + 3,1,1 + 3,2,1 + 3,3,1 + 3,4,1 <= 1
 fo31: 3,1,0 + 3,1,1 + 3,1,2 + 3,1,3 + 3,1,4 <= 1
 l31: 3,1,1 = 0
 f32: 3,0,2 + 3,1,2 - 3,2,0 - 3,2,1 - 3,2,3 - 3,2,4 + 3,3,2 + 3,4,2 = 0
 fi32: 3,0,2 + 3,1,2 + 3,2,2 + 3,3,2 + 3,4,2 <= 1
 fo32: 3,2,0 + 3,2,1 + 3,2,2 + 3,2,3 + 3,2,4 <= 1
 l32: 3,2,2 = 0
 f33: 3,0,3 + 3,1,3 + 3,2,3 - 3,3,0 - 3,3,1 - 3,3,2 - 3,3,4 + 3,4,3 = 0
 fi33: 3,0,3 + 3,1,3 + 3,2,3 + 3,3,3 + 3,4,3 <= 1
 fo33: 3,3,0 + 3,3,1 + 3,3,2 + 3,3,3 + 3,3,4 <= 1
 l33: 3,3,3 = 0
 f34: 3,0,4 + 3,1,4 + 3,2,4 + 3,3,4 - 3,4,0 - 3,4,1 - 3,4,2 - 3,4,3 = 0
 fi34: 3,0,4 + 3,1,4 + 3,2,4 + 3,3,4 + 3,4,4 <= 1
 fo34: 3,4,0 + 3,4,1 + 3,4,2 + 3,4,3 + 3,4,4 <= 1
 l34: 3,4,4 = 0
 ro1: 0,1,1 + 0,1,2 + 0,1,3 + 0,1,4 + 1,1,1 + 1,1,2 + 1,1,3 + 1,1,4 + 2,1,1
   + 2,1,2 + 2,1,3 + 2,1,4 + 3,1,1 + 3,1,2 + 3,1,3 + 3,1,4 = 1
 ro2: 0,2,1 + 0,2,2 + 0,2,3 + 0,2,4 + 1,2,1 + 1,2,2 + 1,2,3 + 1,2,4 + 2,2,1
   + 2,2,2 + 2,2,3 + 2,2,4 + 3,2,1 + 3,2,2 + 3,2,3 + 3,2,4 = 1
 ro3: 0,3,1 + 0,3,2 + 0,3,3 + 0,3,4 + 1,3,1 + 1,3,2 + 1,3,3 + 1,3,4 + 2,3,1
   + 2,3,2 + 2,3,3 + 2,3,4 + 3,3,1 + 3,3,2 + 3,3,3 + 3,3,4 = 1
 ro4: 0,4,1 + 0,4,2 + 0,4,3 + 0,4,4 + 1,4,1 + 1,4,2 + 1,4,3 + 1,4,4 + 2,4,1
   + 2,4,2 + 2,4,3 + 2,4,4 + 3,4,1 + 3,4,2 + 3,4,3 + 3,4,4 = 1
 rd1: 0,1,1 + 0,2,1 + 0,3,1 + 0,4,1 + 1,1,1 + 1,2,1 + 1,3,1 + 1,4,1 + 2,1,1
   + 2,2,1 + 2,3,1 + 2,4,1 + 3,1,1 + 3,2,1 + 3,3,1 + 3,4,1 = 1
 rd2: 0,1,2 + 0,2,2 + 0,3,2 + 0,4,2 + 1,1,2 + 1,2,2 + 1,3,2 + 1,4,2 + 2,1,2
   + 2,2,2 + 2,3,2 + 2,4,2 + 3,1,2 + 3,2,2 + 3,3,2 + 3,4,2 = 1
 rd3: 0,1,3 + 0,2,3 + 0,3,3 + 0,4,3 + 1,1,3 + 1,2,3 + 1,3,3 + 1,4,3 + 2,1,3
   + 2,2,3 + 2,3,3 + 2,4,3 + 3,1,3 + 3,2,3 + 3,3,3 + 3,4,3 = 1
 rd4: 0,1,4 + 0,2,4 + 0,3,4 + 0,4,4 + 1,1,4 + 1,2,4 + 1,3,4 + 1,4,4 + 2,1,4
   + 2,2,4 + 2,3,4 + 2,4,4 + 3,1,4 + 3,2,4 + 3,3,4 + 3,4,4 = 1
Bounds
Binaries
 0,0,0 0,0,1 0,0,2 0,0,3 0,0,4 0,1,0 0,1,1 0,1,2 0,1,3 0,1,4 0,2,0 0,2,1
 0,2,2 0,2,3 0,2,4 0,3,0 0,3,1 0,3,2 0,3,3 0,3,4 0,4,0 0,4,1 0,4,2 0,4,3
 0,4,4 1,0,0 1,0,1 1,0,2 1,0,3 1,0,4 1,1,0 1,1,1 1,1,2 1,1,3 1,1,4 1,2,0
 1,2,1 1,2,2 1,2,3 1,2,4 1,3,0 1,3,1 1,3,2 1,3,3 1,3,4 1,4,0 1,4,1 1,4,2
 1,4,3 1,4,4 2,0,0 2,0,1 2,0,2 2,0,3 2,0,4 2,1,0 2,1,1 2,1,2 2,1,3 2,1,4
 2,2,0 2,2,1 2,2,2 2,2,3 2,2,4 2,3,0 2,3,1 2,3,2 2,3,3 2,3,4 2,4,0 2,4,1
 2,4,2 2,4,3 2,4,4 3,0,0 3,0,1 3,0,2 3,0,3 3,0,4 3,1,0 3,1,1 3,1,2 3,1,3
 3,1,4 3,2,0 3,2,1 3,2,2 3,2,3 3,2,4 3,3,0 3,3,1 3,3,2 3,3,3 3,3,4 3,4,0
 3,4,1 3,4,2 3,4,3 3,4,4
End
